#P LC-wHPBE/Def2SVP 

H13 C15 N2

1 1
N -2.509865 2.995849 0.101074
C -1.239628 2.692792 0.005954
C 0.072579 3.032001 -0.126129
C -0.250887 1.704457 -0.045503
N 0.057334 0.432877 -0.020238
C -0.998382 -0.545258 0.040002
C -2.050943 -0.477531 -0.866480
C -3.081414 -1.407517 -0.783913
C -3.044989 -2.402905 0.184663
C -1.976774 -2.471678 1.073091
C -0.948267 -1.541885 1.007758
C 1.436856 0.016114 -0.056413
C 1.822413 -0.963261 -0.964547
C 3.151541 -1.360414 -1.004427
C 4.083351 -0.780500 -0.150052
C 3.685194 0.194653 0.755720
C 2.355104 0.593042 0.812043
H -3.203850 2.264963 0.214754
H -2.819006 3.961711 0.085197
H 0.834548 3.802078 -0.220825
H -2.052072 0.279587 -1.655462
H -3.907471 -1.365393 -1.496959
H -3.850271 -3.137944 0.242067
H -1.945076 -3.257116 1.830900
H -0.107888 -1.588008 1.703455
H 1.086051 -1.411978 -1.634479
H 3.463301 -2.128384 -1.715132
H 5.127940 -1.095861 -0.187687
H 4.412619 0.642683 1.435576
H 2.034354 1.339931 1.542152



